\ENCODING=ISO-8859-1
\Problem name: noswot.mps

Maximize
 _1#0: -1 x1               -1 x2               + 0 x3               + 1 x4               + 0 x5               -1 x6               + 0 x7               + 1 x8               + 1 x9               + 0 x10              -1 x11              -1 x12              -1 x13              + 0 x14              + 1 x15              + 0 x16              + 0 x17              -1 x18              + 0 x19              -1 x20              + 0 x21              -1 x22              + 1 x23              + 0 x24              + 0 x25              + 1 x26              -1 x27              -1 x28              -1 x29              + 1 x30              + 0 x31              + 0 x32              -1 x33              -1 x34              -1 x35              -1 x36              + 0 x37              + 1 x38              + 1 x39              + 0 x40              -1 x41              + 1 x42              -1 x43              + 1 x44              + 1 x45              + 1 x46              -1 x47              + 0 x48              -1 x49              + 1 x50              + 0 x51              + 1 x52              -1 x53              + 0 x54              -1 x55              + 1 x56              + 1 x57              + 0 x58              -1 x59              + 1 x60              + 0 x61              + 0 x62              + 0 x63              + 1 x64              + 0 x65              + 1 x66              + 1 x67              -1 x68              + 1 x69              + 1 x70              -1 x71              -1 x72              + 0 x73              -1 x74              + 1 x75              + 0 x76              + 1 x77              + 1 x78              + 0 x79              -1 x80              + 1 x81              + 1 x82              -1 x83              + 1 x84              + 0 x85              + 0 x86              + 1 x87              -1 x88              -1 x89              + 1 x90              -1 x91              + 1 x92              -1 x93              + 1 x94              + 0 x95              -1 x96              + 1 x97              + 0 x98              -1 x99              + 0 x100             -1 x101             -1 x102             + 0 x103             -1 x104             + 0 x105             + 1 x106             + 1 x107             + 1 x108             + 0 x109             -1 x110             -1 x111             + 0 x112             + 0 x113             + 0 x114             + 1 x115             + 1 x116             -1 x117             + 0 x118             -1 x119             + 0 x120             + 0 x121             + 0 x122             -1 x123             + 1 x124             + 0 x125             -1 x126             + 1 x127             -1 x128
Subject To
 c1:   x52 + x54 + x56 + x58 + x60 + x62 + x64 + x66 + x68 + x70 + x72 + x74
       + x76 + x78 + x80 + x82 + x84 + x86 + x88 + x90 + x92 + x94 + x96 + x98
       + x100 <= 43
 c2:   - 20 x51 + 2.0833001 x52 + x101 <= 0
 c3:   - 20 x53 + 2.0833001 x54 + x102 <= 0
 c4:   - 20 x55 + 2.0833001 x56 + x103 <= 0
 c5:   - 20 x57 + 2.0833001 x58 + x104 <= 0
 c6:   - 16 x59 + 2.0833001 x60 + x105 <= 0
 c7:   - x51 + x52 >= 0
 c8:   - 9.6000004 x51 + x52 <= 0
 c9:   - x53 + x54 >= 0
 c10:  - 9.6000004 x53 + x54 <= 0
 c11:  - x55 + x56 >= 0
 c12:  - 9.6000004 x55 + x56 <= 0
 c13:  - x57 + x58 >= 0
 c14:  - 9.6000004 x57 + x58 <= 0
 c15:  - x59 + x60 >= 0
 c16:  - 7.6799998 x59 + x60 <= 0
 c17:  21 x1 - 0.6667 x61 - 2.9762001 x62 + x101 - x106 >= 0
 c18:  - 21 x1 - 0.75 x51 - 2.0833001 x52 - x101 + x106 >= -21
 c19:  21 x2 - 0.6667 x63 - 2.9762001 x64 + x102 - x107 >= 0
 c20:  - 21 x2 - 0.75 x53 - 2.0833001 x54 - x102 + x107 >= -21
 c21:  21 x3 - 0.6667 x65 - 2.9762001 x66 + x103 - x108 >= 0
 c22:  - 21 x3 - 0.75 x55 - 2.0833001 x56 - x103 + x108 >= -21
 c23:  21 x4 - 0.6667 x67 - 2.9762001 x68 + x104 - x109 >= 0
 c24:  - 21 x4 - 0.75 x57 - 2.0833001 x58 - x104 + x109 >= -21
 c25:  21 x5 - 0.6667 x69 - 2.9762001 x70 + x105 - x110 >= 0
 c26:  - 21 x5 - 0.75 x59 - 2.0833001 x60 - x105 + x110 >= -21
 c27:  21 x6 - 0.6667 x71 - 3.4721999 x72 + x101 - x111 >= 0
 c28:  - 21 x6 - 0.6667 x51 - 2.0833001 x52 - x101 + x111 >= -21
 c29:  21 x7 - 0.6667 x73 - 3.4721999 x74 + x102 - x112 >= 0
 c30:  - 21 x7 - 0.6667 x53 - 2.0833001 x54 - x102 + x112 >= -21
 c31:  21 x8 - 0.6667 x75 - 3.4721999 x76 + x103 - x113 >= 0
 c32:  - 21 x8 - 0.6667 x55 - 2.0833001 x56 - x103 + x113 >= -21
 c33:  21 x9 - 0.6667 x77 - 3.4721999 x78 + x104 - x114 >= 0
 c34:  - 21 x9 - 0.6667 x57 - 2.0833001 x58 - x104 + x114 >= -21
 c35:  21 x10 - 0.6667 x79 - 3.4721999 x80 + x105 - x115 >= 0
 c36:  - 21 x10 - 0.6667 x59 - 2.0833001 x60 - x105 + x115 >= -21
 c37:  21 x11 - 0.25 x81 - 2.2400999 x82 + x101 - x116 >= 0
 c38:  - 21 x11 - 0.25 x51 - 2.0833001 x52 - x101 + x116 >= -21
 c39:  21 x12 - 0.25 x83 - 2.2400999 x84 + x102 - x117 >= 0
 c40:  - 21 x12 - 0.25 x53 - 2.0833001 x54 - x102 + x117 >= -21
 c41:  21 x13 - 0.25 x85 - 2.2400999 x86 + x103 - x118 >= 0
 c42:  - 21 x13 - 0.25 x55 - 2.0833001 x56 - x103 + x118 >= -21
 c43:  21 x14 - 0.25 x87 - 2.2400999 x88 + x104 - x119 >= 0
 c44:  - 21 x14 - 0.25 x57 - 2.0833001 x58 - x104 + x119 >= -21
 c45:  21 x15 - 0.25 x89 - 2.2400999 x90 + x105 - x120 >= 0
 c46:  - 21 x15 - 0.25 x59 - 2.0833001 x60 - x105 + x120 >= -21
 c47:  21 x16 - 0.6667 x91 - 2.0833001 x92 + x101 - x121 >= 0
 c48:  - 21 x16 - 0.25 x51 - 2.0833001 x52 - x101 + x121 >= -21
 c49:  21 x17 - 0.6667 x93 - 2.0833001 x94 + x102 - x122 >= 0
 c50:  - 21 x17 - 0.25 x53 - 2.0833001 x54 - x102 + x122 >= -21
 c51:  21 x18 - 0.6667 x95 - 2.0833001 x96 + x103 - x123 >= 0
 c52:  - 21 x18 - 0.25 x55 - 2.0833001 x56 - x103 + x123 >= -21
 c53:  21 x19 - 0.6667 x97 - 2.0833001 x98 + x104 - x124 >= 0
 c54:  - 21 x19 - 0.25 x57 - 2.0833001 x58 - x104 + x124 >= -21
 c55:  21 x20 - 0.6667 x99 - 2.0833001 x100 + x105 - x125 >= 0
 c56:  - 21 x20 - 0.25 x59 - 2.0833001 x60 - x105 + x125 >= -21
 c57:  x52 + x54 + x56 + x58 + x60 <= 38
 c58:  - 20 x61 + 2.9762001 x62 + x106 <= 0
 c59:  - 20 x63 + 2.9762001 x64 + x107 <= 0
 c60:  - 20 x65 + 2.9762001 x66 + x108 <= 0
 c61:  - 20 x67 + 2.9762001 x68 + x109 <= 0
 c62:  - 16 x69 + 2.9762001 x70 + x110 <= 0
 c63:  - x61 + x62 >= 0
 c64:  - 6.7199998 x61 + x62 <= 0
 c65:  - x63 + x64 >= 0
 c66:  - 6.7199998 x63 + x64 <= 0
 c67:  - x65 + x66 >= 0
 c68:  - 6.7199998 x65 + x66 <= 0
 c69:  - x67 + x68 >= 0
 c70:  - 6.7199998 x67 + x68 <= 0
 c71:  - x69 + x70 >= 0
 c72:  - 5.3759999 x69 + x70 <= 0
 c73:  21 x21 - 0.75 x71 - 3.4721999 x72 + x106 - x111 >= 0
 c74:  - 21 x21 - 0.6667 x61 - 2.9762001 x62 - x106 + x111 >= -21
 c75:  21 x22 - 0.75 x73 - 3.4721999 x74 + x107 - x112 >= 0
 c76:  - 21 x22 - 0.6667 x63 - 2.9762001 x64 - x107 + x112 >= -21
 c77:  21 x23 - 0.75 x75 - 3.4721999 x76 + x108 - x113 >= 0
 c78:  - 21 x23 - 0.6667 x65 - 2.9762001 x66 - x108 + x113 >= -21
 c79:  21 x24 - 0.75 x77 - 3.4721999 x78 + x109 - x114 >= 0
 c80:  - 21 x24 - 0.6667 x67 - 2.9762001 x68 - x109 + x114 >= -21
 c81:  21 x25 - 0.75 x79 - 3.4721999 x80 + x110 - x115 >= 0
 c82:  - 21 x25 - 0.6667 x69 - 2.9762001 x70 - x110 + x115 >= -21
 c83:  21 x26 - 0.75 x81 - 2.2400999 x82 + x106 - x116 >= 0
 c84:  - 21 x26 - 0.6667 x61 - 2.9762001 x62 - x106 + x116 >= -21
 c85:  21 x27 - 0.75 x83 - 2.2400999 x84 + x107 - x117 >= 0
 c86:  - 21 x27 - 0.6667 x63 - 2.9762001 x64 - x107 + x117 >= -21
 c87:  21 x28 - 0.75 x85 - 2.2400999 x86 + x108 - x118 >= 0
 c88:  - 21 x28 - 0.6667 x65 - 2.9762001 x66 - x108 + x118 >= -21
 c89:  21 x29 - 0.75 x87 - 2.2400999 x88 + x109 - x119 >= 0
 c90:  - 21 x29 - 0.6667 x67 - 2.9762001 x68 - x109 + x119 >= -21
 c91:  21 x30 - 0.75 x89 - 2.2400999 x90 + x110 - x120 >= 0
 c92:  - 21 x30 - 0.6667 x69 - 2.9762001 x70 - x110 + x120 >= -21
 c93:  21 x31 - 0.75 x91 - 2.0833001 x92 + x106 - x121 >= 0
 c94:  - 21 x31 - 0.6667 x61 - 2.9762001 x62 - x106 + x121 >= -21
 c95:  21 x32 - 0.75 x93 - 2.0833001 x94 + x107 - x122 >= 0
 c96:  - 21 x32 - 0.6667 x63 - 2.9762001 x64 - x107 + x122 >= -21
 c97:  21 x33 - 0.75 x95 - 2.0833001 x96 + x108 - x123 >= 0
 c98:  - 21 x33 - 0.6667 x65 - 2.9762001 x66 - x108 + x123 >= -21
 c99:  21 x34 - 0.75 x97 - 2.0833001 x98 + x109 - x124 >= 0
 c100: - 21 x34 - 0.6667 x67 - 2.9762001 x68 - x109 + x124 >= -21
 c101: 21 x35 - 0.75 x99 - 2.0833001 x100 + x110 - x125 >= 0
 c102: - 21 x35 - 0.6667 x69 - 2.9762001 x70 - x110 + x125 >= -21
 c103: x62 + x64 + x66 + x68 + x70 >= 5
 c104: x62 + x64 + x66 + x68 + x70 <= 9
 c105: - 20 x71 + 3.4721999 x72 + x111 <= 0
 c106: - 20 x73 + 3.4721999 x74 + x112 <= 0
 c107: - 20 x75 + 3.4721999 x76 + x113 <= 0
 c108: - 20 x77 + 3.4721999 x78 + x114 <= 0
 c109: - 16 x79 + 3.4721999 x80 + x115 <= 0
 c110: - x71 + x72 >= 0
 c111: - 5.7600002 x71 + x72 <= 0
 c112: - x73 + x74 >= 0
 c113: - 5.7600002 x73 + x74 <= 0
 c114: - x75 + x76 >= 0
 c115: - 5.7600002 x75 + x76 <= 0
 c116: - x77 + x78 >= 0
 c117: - 5.7600002 x77 + x78 <= 0
 c118: - x79 + x80 >= 0
 c119: - 4.6079998 x79 + x80 <= 0
 c120: 21 x36 - 0.6667 x81 - 2.2400999 x82 + x111 - x116 >= 0
 c121: - 21 x36 - 0.6667 x71 - 3.4721999 x72 - x111 + x116 >= -21
 c122: 21 x37 - 0.6667 x83 - 2.2400999 x84 + x112 - x117 >= 0
 c123: - 21 x37 - 0.6667 x73 - 3.4721999 x74 - x112 + x117 >= -21
 c124: 21 x38 - 0.6667 x85 - 2.2400999 x86 + x113 - x118 >= 0
 c125: - 21 x38 - 0.6667 x75 - 3.4721999 x76 - x113 + x118 >= -21
 c126: 21 x39 - 0.6667 x87 - 2.2400999 x88 + x114 - x119 >= 0
 c127: - 21 x39 - 0.6667 x77 - 3.4721999 x78 - x114 + x119 >= -21
 c128: 21 x40 - 0.6667 x89 - 2.2400999 x90 + x115 - x120 >= 0
 c129: - 21 x40 - 0.6667 x79 - 3.4721999 x80 - x115 + x120 >= -21
 c130: 21 x41 - 0.6667 x91 - 2.0833001 x92 + x111 - x121 >= 0
 c131: - 21 x41 - 0.6667 x71 - 3.4721999 x72 - x111 + x121 >= -21
 c132: 21 x42 - 0.6667 x93 - 2.0833001 x94 + x112 - x122 >= 0
 c133: - 21 x42 - 0.6667 x73 - 3.4721999 x74 - x112 + x122 >= -21
 c134: 21 x43 - 0.6667 x95 - 2.0833001 x96 + x113 - x123 >= 0
 c135: - 21 x43 - 0.6667 x75 - 3.4721999 x76 - x113 + x123 >= -21
 c136: 21 x44 - 0.6667 x97 - 2.0833001 x98 + x114 - x124 >= 0
 c137: - 21 x44 - 0.6667 x77 - 3.4721999 x78 - x114 + x124 >= -21
 c138: 21 x45 - 0.6667 x99 - 2.0833001 x100 + x115 - x125 >= 0
 c139: - 21 x45 - 0.6667 x79 - 3.4721999 x80 - x115 + x125 >= -21
 c140: x72 + x74 + x76 + x78 + x80 <= 2
 c141: - 20 x81 + 2.2400999 x82 + x116 <= 0
 c142: - 20 x83 + 2.2400999 x84 + x117 <= 0
 c143: - 20 x85 + 2.2400999 x86 + x118 <= 0
 c144: - 20 x87 + 2.2400999 x88 + x119 <= 0
 c145: - 16 x89 + 2.2400999 x90 + x120 <= 0
 c146: - x81 + x82 >= 0
 c147: - 8.9280005 x81 + x82 + x127  = 0
 c148: - x83 + x84 >= 0
 c149: - 8.9280005 x83 + x84 + x126  = 0
 c150: - x85 + x86 >= 0
 c151: - 8.9280005 x85 + x86 + 2 x128 <= 0
 c152: - x87 + x88 >= 0
 c153: - 8.9280005 x87 + x88 + 3 x128 <= 0
 c154: - x89 + x90 >= 0
 c155: - 7.1423998 x89 + x90 + 4 x128 <= 0
 c156: 21 x46 - 0.6667 x91 - 2.0833001 x92 + x116 - x121 >= 0
 c157: - 21 x46 - 0.25 x81 - 2.2400999 x82 - x116 + x121 >= -21
 c158: 21 x47 - 0.6667 x93 - 2.0833001 x94 + x117 - x122 >= 0
 c159: - 21 x47 - 0.25 x83 - 2.2400999 x84 - x117 + x122 >= -21
 c160: 21 x48 - 0.6667 x95 - 2.0833001 x96 + x118 - x123 >= 0
 c161: - 21 x48 - 0.25 x85 - 2.2400999 x86 - x118 + x123 >= -21
 c162: 21 x49 - 0.6667 x97 - 2.0833001 x98 + x119 - x124 >= 0
 c163: - 21 x49 - 0.25 x87 - 2.2400999 x88 - x119 + x124 >= -21
 c164: 21 x50 - 0.6667 x99 - 2.0833001 x100 + x120 - x125 >= 0
 c165: - 21 x50 - 0.25 x89 - 2.2400999 x90 - x120 + x125 >= -21
 c166: x82 + x84 + x86 + x88 + x90 <= 1
 c167: - 20 x91 + 2.0833001 x92 + x121 <= 0
 c168: - 20 x93 + 2.0833001 x94 + x122 <= 0
 c169: - 20 x95 + 2.0833001 x96 + x123 <= 0
 c170: - 20 x97 + 2.0833001 x98 + x124 <= 0
 c171: - 16 x99 + 2.0833001 x100 + x125 <= 0
 c172: - x91 + x92 >= 0
 c173: - 9.6000004 x91 + x92 <= 0
 c174: - x93 + x94 >= 0
 c175: - 9.6000004 x93 + x94 <= 0
 c176: - x95 + x96 >= 0
 c177: - 9.6000004 x95 + x96 <= 0
 c178: - x97 + x98 >= 0
 c179: - 9.6000004 x97 + x98 <= 0
 c180: - x99 + x100 >= 0
 c181: - 7.6799998 x99 + x100 <= 0
 c182: x92 + x94 + x96 + x98 + x100 <= 2
Bounds
 0 <= x1 <= 1
 0 <= x2 <= 1
 0 <= x3 <= 1
 0 <= x4 <= 1
 0 <= x5 <= 1
 0 <= x6 <= 1
 0 <= x7 <= 1
 0 <= x8 <= 1
 0 <= x9 <= 1
 0 <= x10 <= 1
 0 <= x11 <= 1
 0 <= x12 <= 1
 0 <= x13 <= 1
 0 <= x14 <= 1
 0 <= x15 <= 1
 0 <= x16 <= 1
 0 <= x17 <= 1
 0 <= x18 <= 1
 0 <= x19 <= 1
 0 <= x20 <= 1
 0 <= x21 <= 1
 0 <= x22 <= 1
 0 <= x23 <= 1
 0 <= x24 <= 1
 0 <= x25 <= 1
 0 <= x26 <= 1
 0 <= x27 <= 1
 0 <= x28 <= 1
 0 <= x29 <= 1
 0 <= x30 <= 1
 0 <= x31 <= 1
 0 <= x32 <= 1
 0 <= x33 <= 1
 0 <= x34 <= 1
 0 <= x35 <= 1
 0 <= x36 <= 1
 0 <= x37 <= 1
 0 <= x38 <= 1
 0 <= x39 <= 1
 0 <= x40 <= 1
 0 <= x41 <= 1
 0 <= x42 <= 1
 0 <= x43 <= 1
 0 <= x44 <= 1
 0 <= x45 <= 1
 0 <= x46 <= 1
 0 <= x47 <= 1
 0 <= x48 <= 1
 0 <= x49 <= 1
 0 <= x50 <= 1
 0 <= x51 <= 1
 0 <= x52 <= 100000
 0 <= x53 <= 1
 0 <= x54 <= 100000
 0 <= x55 <= 1
 0 <= x56 <= 100000
 0 <= x57 <= 1
 0 <= x58 <= 100000
 0 <= x59 <= 1
 0 <= x60 <= 100000
 0 <= x61 <= 1
 0 <= x62 <= 100000
 0 <= x63 <= 1
 0 <= x64 <= 100000
 0 <= x65 <= 1
 0 <= x66 <= 100000
 0 <= x67 <= 1
 0 <= x68 <= 100000
 0 <= x69 <= 1
 0 <= x70 <= 100000
 0 <= x71 <= 1
 0 <= x72 <= 100000
 0 <= x73 <= 1
 0 <= x74 <= 100000
 0 <= x75 <= 1
 0 <= x76 <= 100000
 0 <= x77 <= 1
 0 <= x78 <= 100000
 0 <= x79 <= 1
 0 <= x80 <= 100000
 0 <= x81 <= 1
 0 <= x82 <= 100000
 0 <= x83 <= 1
 0 <= x84 <= 100000
 0 <= x85 <= 1
 0 <= x86 <= 100000
 0 <= x87 <= 1
 0 <= x88 <= 100000
 0 <= x89 <= 1
 0 <= x90 <= 100000
 0 <= x91 <= 1
 0 <= x92 <= 100000
 0 <= x93 <= 1
 0 <= x94 <= 100000
 0 <= x95 <= 1
 0 <= x96 <= 100000
 0 <= x97 <= 1
 0 <= x98 <= 100000
 0 <= x99 <= 1
 0 <= x100 <= 100000
Binaries
 x1  x2  x3  x4  x5  x6  x7  x8  x9  x10  x11  x12  x13  x14  x15  x16  x17 
 x18  x19  x20  x21  x22  x23  x24  x25  x26  x27  x28  x29  x30  x31  x32 
 x33  x34  x35  x36  x37  x38  x39  x40  x41  x42  x43  x44  x45  x46  x47 
 x48  x49  x50  x51  x53  x55  x57  x59  x61  x63  x65  x67  x69  x71  x73 
 x75  x77  x79  x81  x83  x85  x87  x89  x91  x93  x95  x97  x99 
Generals
 x52  x54  x56  x58  x60  x62  x64  x66  x68  x70  x72  x74  x76  x78  x80 
 x82  x84  x86  x88  x90  x92  x94  x96  x98  x100 
End
